db/data/3024826631228323194137912579619082945.z3.out
sat
-------------------
402.867079053
